decision_x1=[0,4];
decision_x2=[0,4];
decision_x3=[0,4];
decision_x4=[0,4];
decision_x5=[0,4];
random_y1=[0,4];
constraint_x2_x1=[
0,1,4.5|
0,2,2|
0,3,0.26|
0,4,4.2|
1,0,2.8|
1,2,8.2|
1,3,8.5|
1,4,1.3|
2,0,8.8|
2,1,4.7|
2,3,7.8|
2,4,8.2|
3,0,2.5|
3,1,6.2|
3,2,8.3|
3,4,7.4|
4,0,9.4|
4,1,6.4|
4,2,5|
4,3,3.2|
];
constraint_x3_x1=[
0,1,2.1|
0,2,3.4|
0,3,9.6|
0,4,2|
1,0,8.9|
1,2,2.3|
1,3,8.7|
1,4,9.8|
2,0,4|
2,1,1.7|
2,3,8|
2,4,9.7|
3,0,7.5|
3,1,9.7|
3,2,5.1|
3,4,3.8|
4,0,4.8|
4,1,6.7|
4,2,7.7|
4,3,6.9|
];
constraint_x3_x2=[
0,1,3.3|
0,2,8.9|
0,3,6.5|
0,4,2.6|
1,0,0.96|
1,2,9.9|
1,3,7.5|
1,4,4.2|
2,0,6.9|
2,1,6.9|
2,3,0.76|
2,4,3|
3,0,1.7|
3,1,5.2|
3,2,0.063|
3,4,6.5|
4,0,8|
4,1,0.71|
4,2,4.1|
4,3,6.6|
];
constraint_x4_x1=[
0,1,3.5|
0,2,5.7|
0,3,0.26|
0,4,6.1|
1,0,5.1|
1,2,3.7|
1,3,7.5|
1,4,4.1|
2,0,5.7|
2,1,7|
2,3,1.8|
2,4,2.6|
3,0,7.9|
3,1,7.9|
3,2,5.7|
3,4,0.18|
4,0,2.2|
4,1,2.2|
4,2,9.1|
4,3,6.8|
];
constraint_x5_x4=[
0,1,6|
0,2,6.1|
0,3,8.7|
0,4,0.66|
1,0,3.4|
1,2,8.4|
1,3,0.2|
1,4,1.2|
2,0,4.6|
2,1,3.5|
2,3,3.5|
2,4,1.1|
3,0,4.5|
3,1,7.3|
3,2,4.4|
3,4,8.8|
4,0,5.9|
4,1,2.1|
4,2,5.5|
4,3,1.8|
];
constraint_x1_y1=[
0,0,9.1|
0,1,1.5|
0,2,2.5|
0,3,0.86|
0,4,0.98|
1,0,7.1|
1,1,2.2|
1,2,1.9|
1,3,2.8|
1,4,9.4|
2,0,1.9|
2,1,2.4|
2,2,7.8|
2,3,2.9|
2,4,0.0064|
3,0,7.7|
3,1,4.6|
3,2,1.1|
3,3,8.4|
3,4,1.3|
4,0,8.4|
4,1,2.6|
4,2,9.8|
4,3,5.6|
4,4,4.5|
];
initial_distribution_y1=[0.17,0.067,0.49,0.072,0.21];
transition_y1=[
0.044,0.23,0.049,0.25,0.42|
0.24,0.16,0.13,0.31,0.16|
0.12,0.23,0.22,0.17,0.26|
0.028,0.42,0.14,0.37,0.034|
0.23,0.26,0.17,0.082,0.25|
];
